************************************************************************
file with basedata            : j60_18.bas
initial value random generator: 1687171845
************************************************************************
projects                      :  1
jobs (incl. supersource/sink ):  62
horizon                       :  328
RESOURCES
  - renewable                 :  4   R
  - nonrenewable              :  0   N
  - doubly constrained        :  0   D
************************************************************************
PROJECT INFORMATION:
pronr.  #jobs rel.date duedate tardcost  MPM-Time
    1     60      0       66       32       66
************************************************************************
PRECEDENCE RELATIONS:
jobnr.    #modes  #successors   successors
   1        1          3           2   3   4
   2        1          1           5
   3        1          1           8
   4        1          2           6  58
   5        1          3          12  27  36
   6        1          3           7  10  11
   7        1          3           9  14  15
   8        1          1          17
   9        1          3          16  41  61
  10        1          3          18  24  40
  11        1          3          13  20  38
  12        1          3          23  31  57
  13        1          1          33
  14        1          2          25  26
  15        1          3          19  22  35
  16        1          3          29  43  46
  17        1          1          54
  18        1          3          21  29  50
  19        1          2          30  34
  20        1          3          44  49  51
  21        1          1          48
  22        1          2          32  52
  23        1          1          49
  24        1          2          28  34
  25        1          1          37
  26        1          1          31
  27        1          1          33
  28        1          1          30
  29        1          1          51
  30        1          1          59
  31        1          1          41
  32        1          1          43
  33        1          1          45
  34        1          1          47
  35        1          1          49
  36        1          2          44  56
  37        1          1          42
  38        1          2          39  55
  39        1          2          45  53
  40        1          1          45
  41        1          1          52
  42        1          1          53
  43        1          1          57
  44        1          1          52
  45        1          1          59
  46        1          1          51
  47        1          1          50
  48        1          1          55
  49        1          1          54
  50        1          1          61
  51        1          1          53
  52        1          1          54
  53        1          1          59
  54        1          1          60
  55        1          1          61
  56        1          1          57
  57        1          1          60
  58        1          1          60
  59        1          1          62
  60        1          1          62
  61        1          1          62
  62        1          0        
************************************************************************
REQUESTS/DURATIONS:
jobnr. mode duration  R 1  R 2  R 3  R 4
------------------------------------------------------------------------
  1      1     0       0    0    0    0
  2      1     9       0    0    0    6
  3      1     8       0    0    0    5
  4      1     8       5    0    0    0
  5      1     6       0    5    0    0
  6      1     5       0    0    8    0
  7      1     1       0    0    0    6
  8      1     2       0    0    0    9
  9      1     3       0    3    0    0
 10      1     5       0    0    0    9
 11      1     9       0    0    6    0
 12      1     2       8    0    0    0
 13      1    10       2    0    0    0
 14      1     9       0    0    0    8
 15      1     2       0    0    0    2
 16      1     9       0    0    2    0
 17      1     2       2    0    0    0
 18      1     2       0    0    2    0
 19      1     2       0    0    6    0
 20      1     1       0    0    0    1
 21      1     3       4    0    0    0
 22      1     5       4    0    0    0
 23      1     5       0    3    0    0
 24      1     4       0    0    2    0
 25      1    10       0    0    5    0
 26      1     6       6    0    0    0
 27      1     2       0    9    0    0
 28      1     3       0    0    5    0
 29      1     2       0    0    0   10
 30      1    10       0    0    0    9
 31      1    10       0    0    0   10
 32      1     7       3    0    0    0
 33      1     3       1    0    0    0
 34      1     7       0    0    8    0
 35      1     6       3    0    0    0
 36      1     4       0    0    0    8
 37      1     3       9    0    0    0
 38      1     2       0    0    0    4
 39      1     1       6    0    0    0
 40      1     8       0    5    0    0
 41      1     9       0    0    0    4
 42      1     9       0    0    2    0
 43      1     2       7    0    0    0
 44      1    10       0    0    1    0
 45      1     3       0    0    0    3
 46      1     7       0    0    0    9
 47      1     2       9    0    0    0
 48      1    10       0    0    4    0
 49      1    10       0    2    0    0
 50      1     3       2    0    0    0
 51      1    10       0    6    0    0
 52      1     8       0    0    0   10
 53      1     2       0    0    0    6
 54      1     5       0    8    0    0
 55      1     9       0    0    8    0
 56      1     7      10    0    0    0
 57      1     9       4    0    0    0
 58      1     1       0    0    0    9
 59      1     9      10    0    0    0
 60      1     5       8    0    0    0
 61      1     2       0    0    7    0
 62      1     0       0    0    0    0
************************************************************************
RESOURCEAVAILABILITIES:
  R 1  R 2  R 3  R 4
   19   11   17   19
************************************************************************
